1 - 0
2 - 0
3 - 0
4 - 0
5 - 0
6 - 0
7 - 0
8 - 0
9 - 0
10 - 0
11 - 0
12 - 0
13 - 0
14 - 0
15 - 0
16 - 0
17 - 0
18 - 0
19 - 0
20 - 0
21 - 0
22 - 0
23 - 0
24 - 0
25 - 0
26 - 0
27 - 0
28 - 0
29 - 0
30 - 0
31 - 0
32 - 0
33 - 0
34 - 0
35 - 0
36 - 0
37 - 0
38 - 0
39 - 0
40 - 0
41 - 0
42 - 0
43 - 0
44 - 0
45 - 0
46 - 0
47 - 0
48 - 0
49 - 0
50 - 0
51 - 0
52 - 0
53 - 0
54 - 0
55 - 0
56 - 0
57 - 0
58 - 0
59 - 0
60 - 0
61 - 0
62 - 0
63 - 0
64 - 0
65 - 0
66 - 0
67 - 0
68 - 0
69 - 0
70 - 0
71 - 0
72 - 0
73 - 0
74 - 0
75 - 0
76 - 0
77 - 0
78 - 0
79 - 0
80 - 0
81 - 0
82 - 0
83 - 0
84 - 0
85 - 0
86 - 0
87 - 0
88 - 0
89 - 0
90 - 0
91 - 0
92 - 0
93 - 0
94 - 0
95 - 0
96 - 0
97 - 0
98 - 0
99 - 0
100 - 0
101 - 0
102 - 0
103 - 0
104 - 0
105 - 0
106 - 0
107 - 0
108 - 0
109 - 0
110 - 0
111 - 0
112 - 0
113 - 0
114 - 0
115 - 0
116 - 0
117 - 0
118 - 0
119 - 0
120 - 0
121 - 0
122 - 0
123 - 0
124 - 0
125 - 0
126 - 0
127 - 0
128 - 0
129 - 0
130 - 0
131 - 0
132 - 0
133 - 0
134 - 0
135 - 0
136 - 0
137 - 0
138 - 0
139 - 0
140 - 0
141 - 0
142 - 0
143 - 0
144 - 0
145 - 0
146 - 0
147 - 0
148 - 0
149 - 0
150 - 0
151 - 0
152 - 0
153 - 0
154 - 0
155 - 0
156 - 0
157 - 1
158 - 2
159 - 4
160 - 1
161 - 5
162 - 7
163 - 10
164 - 14
165 - 17
166 - 19
167 - 29
168 - 36
169 - 31
170 - 32
171 - 34
172 - 32
173 - 46
174 - 44
175 - 38
176 - 44
177 - 33
178 - 29
179 - 27
180 - 38
181 - 31
182 - 32
183 - 20
184 - 17
185 - 24
186 - 25
187 - 26
188 - 28
189 - 23
190 - 19
191 - 37
192 - 24
193 - 26
194 - 28
195 - 24
196 - 33
197 - 38
198 - 51
199 - 31
200 - 36
201 - 39
202 - 33
203 - 46
204 - 43
205 - 39
206 - 57
207 - 48
208 - 41
209 - 42
210 - 51
211 - 50
212 - 43
213 - 36
214 - 54
215 - 50
216 - 68
217 - 61
218 - 75
219 - 49
220 - 67
221 - 55
222 - 73
223 - 63
224 - 64
225 - 90
226 - 81
227 - 75
228 - 75
229 - 112
230 - 90
231 - 81
232 - 89
233 - 91
234 - 100
235 - 98
236 - 99
237 - 106
238 - 119
239 - 111
240 - 133
241 - 123
242 - 127
243 - 144
244 - 134
245 - 144
246 - 150
247 - 150
248 - 153
249 - 139
250 - 160
251 - 159
252 - 202
253 - 166
254 - 192
255 - 193
256 - 208
257 - 200
258 - 213
259 - 217
260 - 204
261 - 223
262 - 247
263 - 237
264 - 266
265 - 294
266 - 285
267 - 288
268 - 285
269 - 329
270 - 327
271 - 319
272 - 333
273 - 361
274 - 349
275 - 356
276 - 374
277 - 389
278 - 340
279 - 427
280 - 387
281 - 431
282 - 431
283 - 469
284 - 504
285 - 475
286 - 521
287 - 549
288 - 591
289 - 558
290 - 585
291 - 633
292 - 644
293 - 686
294 - 703
295 - 761
296 - 741
297 - 816
298 - 812
299 - 829
300 - 907
301 - 944
302 - 991
303 - 1045
304 - 1075
305 - 1111
306 - 1148
307 - 1185
308 - 1254
309 - 1287
310 - 1363
311 - 1431
312 - 1490
313 - 1517
314 - 1572
315 - 1624
316 - 1669
317 - 1685
318 - 1747
319 - 1821
320 - 1952
321 - 1923
322 - 1905
323 - 1975
324 - 1991
325 - 2046
326 - 2146
327 - 2100
328 - 2054
329 - 2094
330 - 2070
331 - 2049
332 - 2027
333 - 1955
334 - 2004
335 - 1898
336 - 1962
337 - 1744
338 - 1645
339 - 1617
340 - 1540
341 - 1317
342 - 1248
343 - 1064
344 - 922
345 - 847
346 - 633
347 - 443
348 - 325
349 - 162
350 - 0

0.1 - 7382
0.2 - 7335
0.3 - 7298
0.4 - 18458
0.5 - 15611
0.6 - 13499
0.7 - 8432
0.8 - 8921
0.9 - 7197
1 - 5867
